Minimize
  obj: x0 + x1 + x2 + x3 + x4

Subject To
  c0: x0 + x2 + x3 = 29
  c1: x0 + x1 + x4 = 150
  c2: x0 + x2 = 22
  c3: x2 + x3 + x4 = 15

Bounds
  x0 >= 0
  x1 >= 0
  x2 >= 0
  x3 >= 0
  x4 >= 0

Generals
  x0 x1 x2 x3 x4

End
